; benchmark generated from python API
(set-info :status unknown)
(declare-fun cell_1_8 () Int)
(declare-fun cell_1_9 () Int)
(declare-fun cell_2_2 () Int)
(declare-fun cell_2_5 () Int)
(declare-fun cell_3_1 () Int)
(declare-fun cell_3_4 () Int)
(declare-fun cell_4_9 () Int)
(declare-fun cell_5_1 () Int)
(declare-fun cell_6_6 () Int)
(declare-fun cell_7_7 () Int)
(declare-fun cell_8_5 () Int)
(declare-fun cell_9_3 () Int)
(declare-fun cell_1_1 () Int)
(declare-fun cell_2_1 () Int)
(declare-fun cell_4_1 () Int)
(declare-fun cell_6_1 () Int)
(declare-fun cell_7_1 () Int)
(declare-fun cell_8_1 () Int)
(declare-fun cell_9_1 () Int)
(declare-fun cell_1_2 () Int)
(declare-fun cell_3_2 () Int)
(declare-fun cell_4_2 () Int)
(declare-fun cell_5_2 () Int)
(declare-fun cell_6_2 () Int)
(declare-fun cell_7_2 () Int)
(declare-fun cell_8_2 () Int)
(declare-fun cell_9_2 () Int)
(declare-fun cell_1_3 () Int)
(declare-fun cell_2_3 () Int)
(declare-fun cell_3_3 () Int)
(declare-fun cell_4_3 () Int)
(declare-fun cell_5_3 () Int)
(declare-fun cell_6_3 () Int)
(declare-fun cell_7_3 () Int)
(declare-fun cell_8_3 () Int)
(declare-fun cell_1_4 () Int)
(declare-fun cell_2_4 () Int)
(declare-fun cell_4_4 () Int)
(declare-fun cell_5_4 () Int)
(declare-fun cell_6_4 () Int)
(declare-fun cell_7_4 () Int)
(declare-fun cell_8_4 () Int)
(declare-fun cell_9_4 () Int)
(declare-fun cell_1_5 () Int)
(declare-fun cell_3_5 () Int)
(declare-fun cell_4_5 () Int)
(declare-fun cell_5_5 () Int)
(declare-fun cell_6_5 () Int)
(declare-fun cell_7_5 () Int)
(declare-fun cell_9_5 () Int)
(declare-fun cell_1_6 () Int)
(declare-fun cell_2_6 () Int)
(declare-fun cell_3_6 () Int)
(declare-fun cell_4_6 () Int)
(declare-fun cell_5_6 () Int)
(declare-fun cell_7_6 () Int)
(declare-fun cell_8_6 () Int)
(declare-fun cell_9_6 () Int)
(declare-fun cell_1_7 () Int)
(declare-fun cell_2_7 () Int)
(declare-fun cell_3_7 () Int)
(declare-fun cell_4_7 () Int)
(declare-fun cell_5_7 () Int)
(declare-fun cell_6_7 () Int)
(declare-fun cell_8_7 () Int)
(declare-fun cell_9_7 () Int)
(declare-fun cell_2_8 () Int)
(declare-fun cell_3_8 () Int)
(declare-fun cell_4_8 () Int)
(declare-fun cell_5_8 () Int)
(declare-fun cell_6_8 () Int)
(declare-fun cell_7_8 () Int)
(declare-fun cell_8_8 () Int)
(declare-fun cell_9_8 () Int)
(declare-fun cell_2_9 () Int)
(declare-fun cell_3_9 () Int)
(declare-fun cell_5_9 () Int)
(declare-fun cell_6_9 () Int)
(declare-fun cell_7_9 () Int)
(declare-fun cell_8_9 () Int)
(declare-fun cell_9_9 () Int)
(assert
 (= cell_1_8 1))
(assert
 (= cell_1_9 2))
(assert
 (= cell_2_2 1))
(assert
 (= cell_2_5 2))
(assert
 (= cell_3_1 2))
(assert
 (= cell_3_4 1))
(assert
 (= cell_4_9 1))
(assert
 (= cell_5_1 1))
(assert
 (= cell_6_6 1))
(assert
 (= cell_7_7 1))
(assert
 (= cell_8_5 1))
(assert
 (= cell_9_3 1))
(assert
 (let (($x1409 (= cell_1_1 9)))
 (let (($x1628 (= cell_1_1 8)))
 (let (($x2332 (= cell_1_1 7)))
 (let (($x1585 (= cell_1_1 6)))
 (let (($x1654 (= cell_1_1 5)))
 (let (($x1112 (= cell_1_1 4)))
 (let (($x696 (= cell_1_1 3)))
 (let (($x460 (= cell_1_1 2)))
 (let (($x446 (= cell_1_1 1)))
 (or $x446 $x460 $x696 $x1112 $x1654 $x1585 $x2332 $x1628 $x1409)))))))))))
(assert
 (let (($x2481 (= cell_2_1 9)))
 (let (($x454 (= cell_2_1 8)))
 (let (($x2123 (= cell_2_1 7)))
 (let (($x75 (= cell_2_1 6)))
 (let (($x2103 (= cell_2_1 5)))
 (let (($x3046 (= cell_2_1 4)))
 (let (($x2017 (= cell_2_1 3)))
 (let (($x2551 (= cell_2_1 2)))
 (let (($x1939 (= cell_2_1 1)))
 (or $x1939 $x2551 $x2017 $x3046 $x2103 $x75 $x2123 $x454 $x2481)))))))))))
(assert
 (let (($x1367 (= cell_3_1 2)))
 (or (= cell_3_1 1) $x1367 (= cell_3_1 3) (= cell_3_1 4) (= cell_3_1 5) (= cell_3_1 6) (= cell_3_1 7) (= cell_3_1 8) (= cell_3_1 9))))
(assert
 (let (($x791 (= cell_4_1 9)))
 (let (($x194 (= cell_4_1 8)))
 (let (($x1117 (= cell_4_1 7)))
 (let (($x2309 (= cell_4_1 6)))
 (let (($x857 (= cell_4_1 5)))
 (let (($x2217 (= cell_4_1 4)))
 (let (($x2707 (= cell_4_1 3)))
 (let (($x3139 (= cell_4_1 2)))
 (let (($x1020 (= cell_4_1 1)))
 (or $x1020 $x3139 $x2707 $x2217 $x857 $x2309 $x1117 $x194 $x791)))))))))))
(assert
 (let (($x110 (= cell_5_1 1)))
 (or $x110 (= cell_5_1 2) (= cell_5_1 3) (= cell_5_1 4) (= cell_5_1 5) (= cell_5_1 6) (= cell_5_1 7) (= cell_5_1 8) (= cell_5_1 9))))
(assert
 (let (($x1172 (= cell_6_1 9)))
 (let (($x2969 (= cell_6_1 8)))
 (let (($x812 (= cell_6_1 7)))
 (let (($x646 (= cell_6_1 6)))
 (let (($x2256 (= cell_6_1 5)))
 (let (($x25 (= cell_6_1 4)))
 (let (($x849 (= cell_6_1 3)))
 (let (($x2671 (= cell_6_1 2)))
 (let (($x742 (= cell_6_1 1)))
 (or $x742 $x2671 $x849 $x25 $x2256 $x646 $x812 $x2969 $x1172)))))))))))
(assert
 (let (($x770 (= cell_7_1 9)))
 (let (($x2076 (= cell_7_1 8)))
 (let (($x3365 (= cell_7_1 7)))
 (let (($x193 (= cell_7_1 6)))
 (let (($x1557 (= cell_7_1 5)))
 (let (($x3101 (= cell_7_1 4)))
 (let (($x2241 (= cell_7_1 3)))
 (let (($x2204 (= cell_7_1 2)))
 (let (($x505 (= cell_7_1 1)))
 (or $x505 $x2204 $x2241 $x3101 $x1557 $x193 $x3365 $x2076 $x770)))))))))))
(assert
 (let (($x2810 (= cell_8_1 9)))
 (let (($x3033 (= cell_8_1 8)))
 (let (($x1067 (= cell_8_1 7)))
 (let (($x2949 (= cell_8_1 6)))
 (let (($x426 (= cell_8_1 5)))
 (let (($x1894 (= cell_8_1 4)))
 (let (($x729 (= cell_8_1 3)))
 (let (($x1325 (= cell_8_1 2)))
 (let (($x1397 (= cell_8_1 1)))
 (or $x1397 $x1325 $x729 $x1894 $x426 $x2949 $x1067 $x3033 $x2810)))))))))))
(assert
 (let (($x518 (= cell_9_1 9)))
 (let (($x2853 (= cell_9_1 8)))
 (let (($x1605 (= cell_9_1 7)))
 (let (($x1354 (= cell_9_1 6)))
 (let (($x2349 (= cell_9_1 5)))
 (let (($x373 (= cell_9_1 4)))
 (let (($x1981 (= cell_9_1 3)))
 (let (($x831 (= cell_9_1 2)))
 (let (($x441 (= cell_9_1 1)))
 (or $x441 $x831 $x1981 $x373 $x2349 $x1354 $x1605 $x2853 $x518)))))))))))
(assert
 (let (($x704 (= cell_1_2 9)))
 (let (($x2535 (= cell_1_2 8)))
 (let (($x1092 (= cell_1_2 7)))
 (let (($x333 (= cell_1_2 6)))
 (let (($x511 (= cell_1_2 5)))
 (let (($x858 (= cell_1_2 4)))
 (let (($x2170 (= cell_1_2 3)))
 (let (($x83 (= cell_1_2 2)))
 (let (($x419 (= cell_1_2 1)))
 (or $x419 $x83 $x2170 $x858 $x511 $x333 $x1092 $x2535 $x704)))))))))))
(assert
 (let (($x2754 (= cell_2_2 1)))
 (or $x2754 (= cell_2_2 2) (= cell_2_2 3) (= cell_2_2 4) (= cell_2_2 5) (= cell_2_2 6) (= cell_2_2 7) (= cell_2_2 8) (= cell_2_2 9))))
(assert
 (let (($x2758 (= cell_3_2 9)))
 (let (($x227 (= cell_3_2 8)))
 (let (($x679 (= cell_3_2 7)))
 (let (($x1251 (= cell_3_2 6)))
 (let (($x2531 (= cell_3_2 5)))
 (let (($x3100 (= cell_3_2 4)))
 (let (($x3257 (= cell_3_2 3)))
 (let (($x3326 (= cell_3_2 2)))
 (let (($x2666 (= cell_3_2 1)))
 (or $x2666 $x3326 $x3257 $x3100 $x2531 $x1251 $x679 $x227 $x2758)))))))))))
(assert
 (let (($x2384 (= cell_4_2 9)))
 (let (($x354 (= cell_4_2 8)))
 (let (($x3183 (= cell_4_2 7)))
 (let (($x2028 (= cell_4_2 6)))
 (let (($x1651 (= cell_4_2 5)))
 (let (($x2147 (= cell_4_2 4)))
 (let (($x283 (= cell_4_2 3)))
 (let (($x2635 (= cell_4_2 2)))
 (let (($x1638 (= cell_4_2 1)))
 (or $x1638 $x2635 $x283 $x2147 $x1651 $x2028 $x3183 $x354 $x2384)))))))))))
(assert
 (let (($x3246 (= cell_5_2 1)))
 (or $x3246 (= cell_5_2 2) (= cell_5_2 3) (= cell_5_2 4) (= cell_5_2 5) (= cell_5_2 6) (= cell_5_2 7) (= cell_5_2 8) (= cell_5_2 9))))
(assert
 (let (($x2071 (= cell_6_2 9)))
 (let (($x688 (= cell_6_2 8)))
 (let (($x404 (= cell_6_2 7)))
 (let (($x2891 (= cell_6_2 6)))
 (let (($x2009 (= cell_6_2 5)))
 (let (($x1726 (= cell_6_2 4)))
 (let (($x949 (= cell_6_2 3)))
 (let (($x2784 (= cell_6_2 2)))
 (let (($x2855 (= cell_6_2 1)))
 (or $x2855 $x2784 $x949 $x1726 $x2009 $x2891 $x404 $x688 $x2071)))))))))))
(assert
 (let (($x854 (= cell_7_2 9)))
 (let (($x418 (= cell_7_2 8)))
 (let (($x3375 (= cell_7_2 7)))
 (let (($x2609 (= cell_7_2 6)))
 (let (($x2122 (= cell_7_2 5)))
 (let (($x7819 (= cell_7_2 4)))
 (let (($x3171 (= cell_7_2 3)))
 (let (($x1514 (= cell_7_2 2)))
 (let (($x2270 (= cell_7_2 1)))
 (or $x2270 $x1514 $x3171 $x7819 $x2122 $x2609 $x3375 $x418 $x854)))))))))))
(assert
 (let (($x840 (= cell_8_2 9)))
 (let (($x1873 (= cell_8_2 8)))
 (let (($x3042 (= cell_8_2 7)))
 (let (($x782 (= cell_8_2 6)))
 (let (($x213 (= cell_8_2 5)))
 (let (($x1848 (= cell_8_2 4)))
 (let (($x304 (= cell_8_2 3)))
 (let (($x252 (= cell_8_2 2)))
 (let (($x2761 (= cell_8_2 1)))
 (or $x2761 $x252 $x304 $x1848 $x213 $x782 $x3042 $x1873 $x840)))))))))))
(assert
 (let (($x2258 (= cell_9_2 9)))
 (let (($x2929 (= cell_9_2 8)))
 (let (($x1396 (= cell_9_2 7)))
 (let (($x3050 (= cell_9_2 6)))
 (let (($x1360 (= cell_9_2 5)))
 (let (($x2406 (= cell_9_2 4)))
 (let (($x2140 (= cell_9_2 3)))
 (let (($x2996 (= cell_9_2 2)))
 (let (($x1145 (= cell_9_2 1)))
 (or $x1145 $x2996 $x2140 $x2406 $x1360 $x3050 $x1396 $x2929 $x2258)))))))))))
(assert
 (let (($x2645 (= cell_1_3 9)))
 (let (($x1902 (= cell_1_3 8)))
 (let (($x2094 (= cell_1_3 7)))
 (let (($x2450 (= cell_1_3 6)))
 (let (($x1253 (= cell_1_3 5)))
 (let (($x2512 (= cell_1_3 4)))
 (let (($x2721 (= cell_1_3 3)))
 (let (($x1680 (= cell_1_3 2)))
 (let (($x1414 (= cell_1_3 1)))
 (or $x1414 $x1680 $x2721 $x2512 $x1253 $x2450 $x2094 $x1902 $x2645)))))))))))
(assert
 (let (($x2409 (= cell_2_3 9)))
 (let (($x1529 (= cell_2_3 8)))
 (let (($x2045 (= cell_2_3 7)))
 (let (($x1461 (= cell_2_3 6)))
 (let (($x2294 (= cell_2_3 5)))
 (let (($x654 (= cell_2_3 4)))
 (let (($x1448 (= cell_2_3 3)))
 (let (($x2034 (= cell_2_3 2)))
 (let (($x282 (= cell_2_3 1)))
 (or $x282 $x2034 $x1448 $x654 $x2294 $x1461 $x2045 $x1529 $x2409)))))))))))
(assert
 (let (($x1659 (= cell_3_3 9)))
 (let (($x2358 (= cell_3_3 8)))
 (let (($x2501 (= cell_3_3 7)))
 (let (($x649 (= cell_3_3 6)))
 (let (($x1586 (= cell_3_3 5)))
 (let (($x77 (= cell_3_3 4)))
 (let (($x899 (= cell_3_3 3)))
 (let (($x684 (= cell_3_3 2)))
 (let (($x3335 (= cell_3_3 1)))
 (or $x3335 $x684 $x899 $x77 $x1586 $x649 $x2501 $x2358 $x1659)))))))))))
(assert
 (let (($x3418 (= cell_4_3 9)))
 (let (($x44 (= cell_4_3 8)))
 (let (($x2807 (= cell_4_3 7)))
 (let (($x1123 (= cell_4_3 6)))
 (let (($x2599 (= cell_4_3 5)))
 (let (($x11 (= cell_4_3 4)))
 (let (($x1975 (= cell_4_3 3)))
 (let (($x2696 (= cell_4_3 2)))
 (let (($x1892 (= cell_4_3 1)))
 (or $x1892 $x2696 $x1975 $x11 $x2599 $x1123 $x2807 $x44 $x3418)))))))))))
(assert
 (let (($x79 (= cell_5_3 9)))
 (let (($x2917 (= cell_5_3 8)))
 (let (($x2842 (= cell_5_3 7)))
 (let (($x2602 (= cell_5_3 6)))
 (let (($x2513 (= cell_5_3 5)))
 (let (($x2250 (= cell_5_3 4)))
 (let (($x2908 (= cell_5_3 3)))
 (let (($x82 (= cell_5_3 2)))
 (let (($x1184 (= cell_5_3 1)))
 (or $x1184 $x82 $x2908 $x2250 $x2513 $x2602 $x2842 $x2917 $x79)))))))))))
(assert
 (let (($x488 (= cell_6_3 9)))
 (let (($x430 (= cell_6_3 8)))
 (let (($x639 (= cell_6_3 7)))
 (let (($x598 (= cell_6_3 6)))
 (let (($x1429 (= cell_6_3 5)))
 (let (($x2498 (= cell_6_3 4)))
 (let (($x1978 (= cell_6_3 3)))
 (let (($x2623 (= cell_6_3 2)))
 (let (($x3242 (= cell_6_3 1)))
 (or $x3242 $x2623 $x1978 $x2498 $x1429 $x598 $x639 $x430 $x488)))))))))))
(assert
 (let (($x3209 (= cell_7_3 9)))
 (let (($x46 (= cell_7_3 8)))
 (let (($x650 (= cell_7_3 7)))
 (let (($x2896 (= cell_7_3 6)))
 (let (($x2007 (= cell_7_3 5)))
 (let (($x3178 (= cell_7_3 4)))
 (let (($x474 (= cell_7_3 3)))
 (let (($x2967 (= cell_7_3 2)))
 (let (($x1395 (= cell_7_3 1)))
 (or $x1395 $x2967 $x474 $x3178 $x2007 $x2896 $x650 $x46 $x3209)))))))))))
(assert
 (let (($x414 (= cell_8_3 9)))
 (let (($x957 (= cell_8_3 8)))
 (let (($x2448 (= cell_8_3 7)))
 (let (($x3220 (= cell_8_3 6)))
 (let (($x2818 (= cell_8_3 5)))
 (let (($x127 (= cell_8_3 4)))
 (let (($x1205 (= cell_8_3 3)))
 (let (($x3104 (= cell_8_3 2)))
 (let (($x2078 (= cell_8_3 1)))
 (or $x2078 $x3104 $x1205 $x127 $x2818 $x3220 $x2448 $x957 $x414)))))))))))
(assert
 (let (($x1269 (= cell_9_3 1)))
 (or $x1269 (= cell_9_3 2) (= cell_9_3 3) (= cell_9_3 4) (= cell_9_3 5) (= cell_9_3 6) (= cell_9_3 7) (= cell_9_3 8) (= cell_9_3 9))))
(assert
 (let (($x2237 (= cell_1_4 9)))
 (let (($x1130 (= cell_1_4 8)))
 (let (($x1882 (= cell_1_4 7)))
 (let (($x703 (= cell_1_4 6)))
 (let (($x1719 (= cell_1_4 5)))
 (let (($x3415 (= cell_1_4 4)))
 (let (($x1425 (= cell_1_4 3)))
 (let (($x2386 (= cell_1_4 2)))
 (let (($x3164 (= cell_1_4 1)))
 (or $x3164 $x2386 $x1425 $x3415 $x1719 $x703 $x1882 $x1130 $x2237)))))))))))
(assert
 (let (($x2708 (= cell_2_4 9)))
 (let (($x2650 (= cell_2_4 8)))
 (let (($x3334 (= cell_2_4 7)))
 (let (($x1755 (= cell_2_4 6)))
 (let (($x1875 (= cell_2_4 5)))
 (let (($x1664 (= cell_2_4 4)))
 (let (($x317 (= cell_2_4 3)))
 (let (($x2840 (= cell_2_4 2)))
 (let (($x3278 (= cell_2_4 1)))
 (or $x3278 $x2840 $x317 $x1664 $x1875 $x1755 $x3334 $x2650 $x2708)))))))))))
(assert
 (let (($x1842 (= cell_3_4 1)))
 (or $x1842 (= cell_3_4 2) (= cell_3_4 3) (= cell_3_4 4) (= cell_3_4 5) (= cell_3_4 6) (= cell_3_4 7) (= cell_3_4 8) (= cell_3_4 9))))
(assert
 (let (($x1431 (= cell_4_4 9)))
 (let (($x69 (= cell_4_4 8)))
 (let (($x3082 (= cell_4_4 7)))
 (let (($x3345 (= cell_4_4 6)))
 (let (($x1424 (= cell_4_4 5)))
 (let (($x3114 (= cell_4_4 4)))
 (let (($x2395 (= cell_4_4 3)))
 (let (($x841 (= cell_4_4 2)))
 (let (($x49 (= cell_4_4 1)))
 (or $x49 $x841 $x2395 $x3114 $x1424 $x3345 $x3082 $x69 $x1431)))))))))))
(assert
 (let (($x465 (= cell_5_4 9)))
 (let (($x617 (= cell_5_4 8)))
 (let (($x1958 (= cell_5_4 7)))
 (let (($x1344 (= cell_5_4 6)))
 (let (($x2012 (= cell_5_4 5)))
 (let (($x1394 (= cell_5_4 4)))
 (let (($x2788 (= cell_5_4 3)))
 (let (($x2437 (= cell_5_4 2)))
 (let (($x2087 (= cell_5_4 1)))
 (or $x2087 $x2437 $x2788 $x1394 $x2012 $x1344 $x1958 $x617 $x465)))))))))))
(assert
 (let (($x767 (= cell_6_4 9)))
 (let (($x1477 (= cell_6_4 8)))
 (let (($x864 (= cell_6_4 7)))
 (let (($x1199 (= cell_6_4 6)))
 (let (($x1209 (= cell_6_4 5)))
 (let (($x1078 (= cell_6_4 4)))
 (let (($x3386 (= cell_6_4 3)))
 (let (($x1657 (= cell_6_4 2)))
 (let (($x2338 (= cell_6_4 1)))
 (or $x2338 $x1657 $x3386 $x1078 $x1209 $x1199 $x864 $x1477 $x767)))))))))))
(assert
 (let (($x795 (= cell_7_4 9)))
 (let (($x544 (= cell_7_4 8)))
 (let (($x2238 (= cell_7_4 7)))
 (let (($x1696 (= cell_7_4 6)))
 (let (($x500 (= cell_7_4 5)))
 (let (($x1053 (= cell_7_4 4)))
 (let (($x1291 (= cell_7_4 3)))
 (let (($x1570 (= cell_7_4 2)))
 (let (($x2658 (= cell_7_4 1)))
 (or $x2658 $x1570 $x1291 $x1053 $x500 $x1696 $x2238 $x544 $x795)))))))))))
(assert
 (let (($x1221 (= cell_8_4 9)))
 (let (($x2486 (= cell_8_4 8)))
 (let (($x900 (= cell_8_4 7)))
 (let (($x3038 (= cell_8_4 6)))
 (let (($x308 (= cell_8_4 5)))
 (let (($x821 (= cell_8_4 4)))
 (let (($x1189 (= cell_8_4 3)))
 (let (($x131 (= cell_8_4 2)))
 (let (($x954 (= cell_8_4 1)))
 (or $x954 $x131 $x1189 $x821 $x308 $x3038 $x900 $x2486 $x1221)))))))))))
(assert
 (let (($x1447 (= cell_9_4 1)))
 (or $x1447 (= cell_9_4 2) (= cell_9_4 3) (= cell_9_4 4) (= cell_9_4 5) (= cell_9_4 6) (= cell_9_4 7) (= cell_9_4 8) (= cell_9_4 9))))
(assert
 (let (($x2488 (= cell_1_5 9)))
 (let (($x7785 (= cell_1_5 8)))
 (let (($x2343 (= cell_1_5 7)))
 (let (($x1444 (= cell_1_5 6)))
 (let (($x981 (= cell_1_5 5)))
 (let (($x129 (= cell_1_5 4)))
 (let (($x1761 (= cell_1_5 3)))
 (let (($x1789 (= cell_1_5 2)))
 (let (($x2527 (= cell_1_5 1)))
 (or $x2527 $x1789 $x1761 $x129 $x981 $x1444 $x2343 $x7785 $x2488)))))))))))
(assert
 (let (($x815 (= cell_2_5 2)))
 (or (= cell_2_5 1) $x815 (= cell_2_5 3) (= cell_2_5 4) (= cell_2_5 5) (= cell_2_5 6) (= cell_2_5 7) (= cell_2_5 8) (= cell_2_5 9))))
(assert
 (let (($x2884 (= cell_3_5 9)))
 (let (($x802 (= cell_3_5 8)))
 (let (($x2444 (= cell_3_5 7)))
 (let (($x1897 (= cell_3_5 6)))
 (let (($x2438 (= cell_3_5 5)))
 (let (($x1310 (= cell_3_5 4)))
 (let (($x1615 (= cell_3_5 3)))
 (let (($x1837 (= cell_3_5 2)))
 (let (($x532 (= cell_3_5 1)))
 (or $x532 $x1837 $x1615 $x1310 $x2438 $x1897 $x2444 $x802 $x2884)))))))))))
(assert
 (let (($x2977 (= cell_4_5 9)))
 (let (($x2321 (= cell_4_5 8)))
 (let (($x1033 (= cell_4_5 7)))
 (let (($x962 (= cell_4_5 6)))
 (let (($x1214 (= cell_4_5 5)))
 (let (($x3408 (= cell_4_5 4)))
 (let (($x1355 (= cell_4_5 3)))
 (let (($x2851 (= cell_4_5 2)))
 (let (($x1011 (= cell_4_5 1)))
 (or $x1011 $x2851 $x1355 $x3408 $x1214 $x962 $x1033 $x2321 $x2977)))))))))))
(assert
 (let (($x160 (= cell_5_5 9)))
 (let (($x918 (= cell_5_5 8)))
 (let (($x1968 (= cell_5_5 7)))
 (let (($x898 (= cell_5_5 6)))
 (let (($x8295 (= cell_5_5 5)))
 (let (($x765 (= cell_5_5 4)))
 (let (($x788 (= cell_5_5 3)))
 (let (($x1334 (= cell_5_5 2)))
 (let (($x1237 (= cell_5_5 1)))
 (or $x1237 $x1334 $x788 $x765 $x8295 $x898 $x1968 $x918 $x160)))))))))))
(assert
 (let (($x950 (= cell_6_5 9)))
 (let (($x1724 (= cell_6_5 8)))
 (let (($x1911 (= cell_6_5 7)))
 (let (($x203 (= cell_6_5 6)))
 (let (($x1795 (= cell_6_5 5)))
 (let (($x2127 (= cell_6_5 4)))
 (let (($x1878 (= cell_6_5 3)))
 (let (($x1446 (= cell_6_5 2)))
 (let (($x2502 (= cell_6_5 1)))
 (or $x2502 $x1446 $x1878 $x2127 $x1795 $x203 $x1911 $x1724 $x950)))))))))))
(assert
 (let (($x3146 (= cell_7_5 9)))
 (let (($x2302 (= cell_7_5 8)))
 (let (($x1774 (= cell_7_5 7)))
 (let (($x3348 (= cell_7_5 6)))
 (let (($x1765 (= cell_7_5 5)))
 (let (($x4467 (= cell_7_5 4)))
 (let (($x1706 (= cell_7_5 3)))
 (let (($x842 (= cell_7_5 2)))
 (let (($x2700 (= cell_7_5 1)))
 (or $x2700 $x842 $x1706 $x4467 $x1765 $x3348 $x1774 $x2302 $x3146)))))))))))
(assert
 (let (($x3072 (= cell_8_5 1)))
 (or $x3072 (= cell_8_5 2) (= cell_8_5 3) (= cell_8_5 4) (= cell_8_5 5) (= cell_8_5 6) (= cell_8_5 7) (= cell_8_5 8) (= cell_8_5 9))))
(assert
 (let (($x413 (= cell_9_5 2)))
 (let (($x2291 (= cell_9_5 1)))
 (or $x2291 $x413 (= cell_9_5 3) (= cell_9_5 4) (= cell_9_5 5) (= cell_9_5 6) (= cell_9_5 7) (= cell_9_5 8) (= cell_9_5 9)))))
(assert
 (let (($x644 (= cell_1_6 9)))
 (let (($x1820 (= cell_1_6 8)))
 (let (($x1957 (= cell_1_6 7)))
 (let (($x2044 (= cell_1_6 6)))
 (let (($x1377 (= cell_1_6 5)))
 (let (($x235 (= cell_1_6 4)))
 (let (($x2544 (= cell_1_6 3)))
 (let (($x1438 (= cell_1_6 2)))
 (let (($x1640 (= cell_1_6 1)))
 (or $x1640 $x1438 $x2544 $x235 $x1377 $x2044 $x1957 $x1820 $x644)))))))))))
(assert
 (let (($x2738 (= cell_2_6 9)))
 (let (($x2831 (= cell_2_6 8)))
 (let (($x325 (= cell_2_6 7)))
 (let (($x3217 (= cell_2_6 6)))
 (let (($x2773 (= cell_2_6 5)))
 (let (($x2769 (= cell_2_6 4)))
 (let (($x265 (= cell_2_6 3)))
 (let (($x2934 (= cell_2_6 2)))
 (let (($x531 (= cell_2_6 1)))
 (or $x531 $x2934 $x265 $x2769 $x2773 $x3217 $x325 $x2831 $x2738)))))))))))
(assert
 (let (($x181 (= cell_3_6 9)))
 (let (($x1606 (= cell_3_6 8)))
 (let (($x2517 (= cell_3_6 7)))
 (let (($x2933 (= cell_3_6 6)))
 (let (($x1877 (= cell_3_6 5)))
 (let (($x2496 (= cell_3_6 4)))
 (let (($x1751 (= cell_3_6 3)))
 (let (($x146 (= cell_3_6 2)))
 (let (($x1450 (= cell_3_6 1)))
 (or $x1450 $x146 $x1751 $x2496 $x1877 $x2933 $x2517 $x1606 $x181)))))))))))
(assert
 (let (($x964 (= cell_4_6 9)))
 (let (($x515 (= cell_4_6 8)))
 (let (($x1769 (= cell_4_6 7)))
 (let (($x707 (= cell_4_6 6)))
 (let (($x3078 (= cell_4_6 5)))
 (let (($x63 (= cell_4_6 4)))
 (let (($x2681 (= cell_4_6 3)))
 (let (($x2200 (= cell_4_6 2)))
 (let (($x2212 (= cell_4_6 1)))
 (or $x2212 $x2200 $x2681 $x63 $x3078 $x707 $x1769 $x515 $x964)))))))))))
(assert
 (let (($x3181 (= cell_5_6 9)))
 (let (($x1749 (= cell_5_6 8)))
 (let (($x7 (= cell_5_6 7)))
 (let (($x2150 (= cell_5_6 6)))
 (let (($x440 (= cell_5_6 5)))
 (let (($x2550 (= cell_5_6 4)))
 (let (($x3207 (= cell_5_6 3)))
 (let (($x2118 (= cell_5_6 2)))
 (let (($x701 (= cell_5_6 1)))
 (or $x701 $x2118 $x3207 $x2550 $x440 $x2150 $x7 $x1749 $x3181)))))))))))
(assert
 (let (($x2928 (= cell_6_6 1)))
 (or $x2928 (= cell_6_6 2) (= cell_6_6 3) (= cell_6_6 4) (= cell_6_6 5) (= cell_6_6 6) (= cell_6_6 7) (= cell_6_6 8) (= cell_6_6 9))))
(assert
 (let (($x1120 (= cell_7_6 9)))
 (let (($x3371 (= cell_7_6 8)))
 (let (($x1909 (= cell_7_6 7)))
 (let (($x3052 (= cell_7_6 6)))
 (let (($x14 (= cell_7_6 5)))
 (let (($x1545 (= cell_7_6 4)))
 (let (($x2753 (= cell_7_6 3)))
 (let (($x3256 (= cell_7_6 2)))
 (let (($x1740 (= cell_7_6 1)))
 (or $x1740 $x3256 $x2753 $x1545 $x14 $x3052 $x1909 $x3371 $x1120)))))))))))
(assert
 (let (($x3102 (= cell_8_6 1)))
 (or $x3102 (= cell_8_6 2) (= cell_8_6 3) (= cell_8_6 4) (= cell_8_6 5) (= cell_8_6 6) (= cell_8_6 7) (= cell_8_6 8) (= cell_8_6 9))))
(assert
 (let (($x411 (= cell_9_6 1)))
 (or $x411 (= cell_9_6 2) (= cell_9_6 3) (= cell_9_6 4) (= cell_9_6 5) (= cell_9_6 6) (= cell_9_6 7) (= cell_9_6 8) (= cell_9_6 9))))
(assert
 (let (($x1905 (= cell_1_7 9)))
 (let (($x3093 (= cell_1_7 8)))
 (let (($x2038 (= cell_1_7 7)))
 (let (($x1170 (= cell_1_7 6)))
 (let (($x491 (= cell_1_7 5)))
 (let (($x2955 (= cell_1_7 4)))
 (let (($x2639 (= cell_1_7 3)))
 (let (($x2983 (= cell_1_7 2)))
 (let (($x3302 (= cell_1_7 1)))
 (or $x3302 $x2983 $x2639 $x2955 $x491 $x1170 $x2038 $x3093 $x1905)))))))))))
(assert
 (let (($x219 (= cell_2_7 9)))
 (let (($x179 (= cell_2_7 8)))
 (let (($x2813 (= cell_2_7 7)))
 (let (($x1870 (= cell_2_7 6)))
 (let (($x228 (= cell_2_7 5)))
 (let (($x2563 (= cell_2_7 4)))
 (let (($x1652 (= cell_2_7 3)))
 (let (($x1058 (= cell_2_7 2)))
 (let (($x1796 (= cell_2_7 1)))
 (or $x1796 $x1058 $x1652 $x2563 $x228 $x1870 $x2813 $x179 $x219)))))))))))
(assert
 (let (($x1069 (= cell_3_7 9)))
 (let (($x1991 (= cell_3_7 8)))
 (let (($x977 (= cell_3_7 7)))
 (let (($x872 (= cell_3_7 6)))
 (let (($x8 (= cell_3_7 5)))
 (let (($x540 (= cell_3_7 4)))
 (let (($x2317 (= cell_3_7 3)))
 (let (($x1183 (= cell_3_7 2)))
 (let (($x2504 (= cell_3_7 1)))
 (or $x2504 $x1183 $x2317 $x540 $x8 $x872 $x977 $x1991 $x1069)))))))))))
(assert
 (let (($x229 (= cell_4_7 9)))
 (let (($x3040 (= cell_4_7 8)))
 (let (($x2812 (= cell_4_7 7)))
 (let (($x2619 (= cell_4_7 6)))
 (let (($x1965 (= cell_4_7 5)))
 (let (($x523 (= cell_4_7 4)))
 (let (($x888 (= cell_4_7 3)))
 (let (($x2519 (= cell_4_7 2)))
 (let (($x2538 (= cell_4_7 1)))
 (or $x2538 $x2519 $x888 $x523 $x1965 $x2619 $x2812 $x3040 $x229)))))))))))
(assert
 (let (($x158 (= cell_5_7 9)))
 (let (($x309 (= cell_5_7 8)))
 (let (($x594 (= cell_5_7 7)))
 (let (($x1739 (= cell_5_7 6)))
 (let (($x517 (= cell_5_7 5)))
 (let (($x2526 (= cell_5_7 4)))
 (let (($x557 (= cell_5_7 3)))
 (let (($x1452 (= cell_5_7 2)))
 (let (($x2091 (= cell_5_7 1)))
 (or $x2091 $x1452 $x557 $x2526 $x517 $x1739 $x594 $x309 $x158)))))))))))
(assert
 (let (($x902 (= cell_6_7 9)))
 (let (($x3401 (= cell_6_7 8)))
 (let (($x2923 (= cell_6_7 7)))
 (let (($x321 (= cell_6_7 6)))
 (let (($x1470 (= cell_6_7 5)))
 (let (($x2319 (= cell_6_7 4)))
 (let (($x34 (= cell_6_7 3)))
 (let (($x1846 (= cell_6_7 2)))
 (let (($x1440 (= cell_6_7 1)))
 (or $x1440 $x1846 $x34 $x2319 $x1470 $x321 $x2923 $x3401 $x902)))))))))))
(assert
 (let (($x3073 (= cell_7_7 1)))
 (or $x3073 (= cell_7_7 2) (= cell_7_7 3) (= cell_7_7 4) (= cell_7_7 5) (= cell_7_7 6) (= cell_7_7 7) (= cell_7_7 8) (= cell_7_7 9))))
(assert
 (let (($x3221 (= cell_8_7 1)))
 (or $x3221 (= cell_8_7 2) (= cell_8_7 3) (= cell_8_7 4) (= cell_8_7 5) (= cell_8_7 6) (= cell_8_7 7) (= cell_8_7 8) (= cell_8_7 9))))
(assert
 (let (($x2597 (= cell_9_7 1)))
 (or $x2597 (= cell_9_7 2) (= cell_9_7 3) (= cell_9_7 4) (= cell_9_7 5) (= cell_9_7 6) (= cell_9_7 7) (= cell_9_7 8) (= cell_9_7 9))))
(assert
 (let (($x3186 (= cell_1_8 1)))
 (or $x3186 (= cell_1_8 2) (= cell_1_8 3) (= cell_1_8 4) (= cell_1_8 5) (= cell_1_8 6) (= cell_1_8 7) (= cell_1_8 8) (= cell_1_8 9))))
(assert
 (let (($x1563 (= cell_2_8 2)))
 (let (($x896 (= cell_2_8 1)))
 (or $x896 $x1563 (= cell_2_8 3) (= cell_2_8 4) (= cell_2_8 5) (= cell_2_8 6) (= cell_2_8 7) (= cell_2_8 8) (= cell_2_8 9)))))
(assert
 (let (($x992 (= cell_3_8 2)))
 (let (($x1538 (= cell_3_8 1)))
 (or $x1538 $x992 (= cell_3_8 3) (= cell_3_8 4) (= cell_3_8 5) (= cell_3_8 6) (= cell_3_8 7) (= cell_3_8 8) (= cell_3_8 9)))))
(assert
 (let (($x1376 (= cell_4_8 9)))
 (let (($x2548 (= cell_4_8 8)))
 (let (($x2271 (= cell_4_8 7)))
 (let (($x480 (= cell_4_8 6)))
 (let (($x384 (= cell_4_8 5)))
 (let (($x2618 (= cell_4_8 4)))
 (let (($x2533 (= cell_4_8 3)))
 (let (($x1243 (= cell_4_8 2)))
 (let (($x1238 (= cell_4_8 1)))
 (or $x1238 $x1243 $x2533 $x2618 $x384 $x480 $x2271 $x2548 $x1376)))))))))))
(assert
 (let (($x482 (= cell_5_8 1)))
 (or $x482 (= cell_5_8 2) (= cell_5_8 3) (= cell_5_8 4) (= cell_5_8 5) (= cell_5_8 6) (= cell_5_8 7) (= cell_5_8 8) (= cell_5_8 9))))
(assert
 (let (($x2825 (= cell_6_8 9)))
 (let (($x1109 (= cell_6_8 8)))
 (let (($x1593 (= cell_6_8 7)))
 (let (($x102 (= cell_6_8 6)))
 (let (($x912 (= cell_6_8 5)))
 (let (($x1811 (= cell_6_8 4)))
 (let (($x890 (= cell_6_8 3)))
 (let (($x266 (= cell_6_8 2)))
 (let (($x3337 (= cell_6_8 1)))
 (or $x3337 $x266 $x890 $x1811 $x912 $x102 $x1593 $x1109 $x2825)))))))))))
(assert
 (let (($x2954 (= cell_7_8 1)))
 (or $x2954 (= cell_7_8 2) (= cell_7_8 3) (= cell_7_8 4) (= cell_7_8 5) (= cell_7_8 6) (= cell_7_8 7) (= cell_7_8 8) (= cell_7_8 9))))
(assert
 (let (($x2239 (= cell_8_8 1)))
 (or $x2239 (= cell_8_8 2) (= cell_8_8 3) (= cell_8_8 4) (= cell_8_8 5) (= cell_8_8 6) (= cell_8_8 7) (= cell_8_8 8) (= cell_8_8 9))))
(assert
 (let (($x2811 (= cell_9_8 1)))
 (or $x2811 (= cell_9_8 2) (= cell_9_8 3) (= cell_9_8 4) (= cell_9_8 5) (= cell_9_8 6) (= cell_9_8 7) (= cell_9_8 8) (= cell_9_8 9))))
(assert
 (let (($x2846 (= cell_1_9 2)))
 (or (= cell_1_9 1) $x2846 (= cell_1_9 3) (= cell_1_9 4) (= cell_1_9 5) (= cell_1_9 6) (= cell_1_9 7) (= cell_1_9 8) (= cell_1_9 9))))
(assert
 (let (($x1604 (= cell_2_9 9)))
 (let (($x2911 (= cell_2_9 8)))
 (let (($x3344 (= cell_2_9 7)))
 (let (($x1030 (= cell_2_9 6)))
 (let (($x3228 (= cell_2_9 5)))
 (let (($x2133 (= cell_2_9 4)))
 (let (($x2423 (= cell_2_9 3)))
 (let (($x1451 (= cell_2_9 2)))
 (let (($x514 (= cell_2_9 1)))
 (or $x514 $x1451 $x2423 $x2133 $x3228 $x1030 $x3344 $x2911 $x1604)))))))))))
(assert
 (let (($x2791 (= cell_3_9 9)))
 (let (($x1188 (= cell_3_9 8)))
 (let (($x1048 (= cell_3_9 7)))
 (let (($x1733 (= cell_3_9 6)))
 (let (($x1754 (= cell_3_9 5)))
 (let (($x881 (= cell_3_9 4)))
 (let (($x3061 (= cell_3_9 3)))
 (let (($x700 (= cell_3_9 2)))
 (let (($x8125 (= cell_3_9 1)))
 (or $x8125 $x700 $x3061 $x881 $x1754 $x1733 $x1048 $x1188 $x2791)))))))))))
(assert
 (let (($x2397 (= cell_4_9 1)))
 (or $x2397 (= cell_4_9 2) (= cell_4_9 3) (= cell_4_9 4) (= cell_4_9 5) (= cell_4_9 6) (= cell_4_9 7) (= cell_4_9 8) (= cell_4_9 9))))
(assert
 (let (($x2061 (= cell_5_9 9)))
 (let (($x1675 (= cell_5_9 8)))
 (let (($x1365 (= cell_5_9 7)))
 (let (($x2864 (= cell_5_9 6)))
 (let (($x2187 (= cell_5_9 5)))
 (let (($x1455 (= cell_5_9 4)))
 (let (($x1005 (= cell_5_9 3)))
 (let (($x662 (= cell_5_9 2)))
 (let (($x1087 (= cell_5_9 1)))
 (or $x1087 $x662 $x1005 $x1455 $x2187 $x2864 $x1365 $x1675 $x2061)))))))))))
(assert
 (let (($x3056 (= cell_6_9 2)))
 (let (($x182 (= cell_6_9 1)))
 (or $x182 $x3056 (= cell_6_9 3) (= cell_6_9 4) (= cell_6_9 5) (= cell_6_9 6) (= cell_6_9 7) (= cell_6_9 8) (= cell_6_9 9)))))
(assert
 (let (($x2817 (= cell_7_9 2)))
 (let (($x2084 (= cell_7_9 1)))
 (or $x2084 $x2817 (= cell_7_9 3) (= cell_7_9 4) (= cell_7_9 5) (= cell_7_9 6) (= cell_7_9 7) (= cell_7_9 8) (= cell_7_9 9)))))
(assert
 (let (($x2146 (= cell_8_9 2)))
 (let (($x973 (= cell_8_9 1)))
 (or $x973 $x2146 (= cell_8_9 3) (= cell_8_9 4) (= cell_8_9 5) (= cell_8_9 6) (= cell_8_9 7) (= cell_8_9 8) (= cell_8_9 9)))))
(assert
 (let (($x1111 (= cell_9_9 2)))
 (let (($x2055 (= cell_9_9 1)))
 (or $x2055 $x1111 (= cell_9_9 3) (= cell_9_9 4) (= cell_9_9 5) (= cell_9_9 6) (= cell_9_9 7) (= cell_9_9 8) (= cell_9_9 9)))))
(assert
 (and (distinct cell_1_1 cell_1_2 cell_1_3 cell_1_4 cell_1_5 cell_1_6 cell_1_7 cell_1_8 cell_1_9) true))
(assert
 (and (distinct cell_2_1 cell_2_2 cell_2_3 cell_2_4 cell_2_5 cell_2_6 cell_2_7 cell_2_8 cell_2_9) true))
(assert
 (and (distinct cell_3_1 cell_3_2 cell_3_3 cell_3_4 cell_3_5 cell_3_6 cell_3_7 cell_3_8 cell_3_9) true))
(assert
 (and (distinct cell_4_1 cell_4_2 cell_4_3 cell_4_4 cell_4_5 cell_4_6 cell_4_7 cell_4_8 cell_4_9) true))
(assert
 (and (distinct cell_5_1 cell_5_2 cell_5_3 cell_5_4 cell_5_5 cell_5_6 cell_5_7 cell_5_8 cell_5_9) true))
(assert
 (and (distinct cell_6_1 cell_6_2 cell_6_3 cell_6_4 cell_6_5 cell_6_6 cell_6_7 cell_6_8 cell_6_9) true))
(assert
 (and (distinct cell_7_1 cell_7_2 cell_7_3 cell_7_4 cell_7_5 cell_7_6 cell_7_7 cell_7_8 cell_7_9) true))
(assert
 (and (distinct cell_8_1 cell_8_2 cell_8_3 cell_8_4 cell_8_5 cell_8_6 cell_8_7 cell_8_8 cell_8_9) true))
(assert
 (and (distinct cell_9_1 cell_9_2 cell_9_3 cell_9_4 cell_9_5 cell_9_6 cell_9_7 cell_9_8 cell_9_9) true))
(assert
 (and (distinct cell_1_1 cell_2_1 cell_3_1 cell_4_1 cell_5_1 cell_6_1 cell_7_1 cell_8_1 cell_9_1) true))
(assert
 (and (distinct cell_1_2 cell_2_2 cell_3_2 cell_4_2 cell_5_2 cell_6_2 cell_7_2 cell_8_2 cell_9_2) true))
(assert
 (and (distinct cell_1_3 cell_2_3 cell_3_3 cell_4_3 cell_5_3 cell_6_3 cell_7_3 cell_8_3 cell_9_3) true))
(assert
 (and (distinct cell_1_4 cell_2_4 cell_3_4 cell_4_4 cell_5_4 cell_6_4 cell_7_4 cell_8_4 cell_9_4) true))
(assert
 (and (distinct cell_1_5 cell_2_5 cell_3_5 cell_4_5 cell_5_5 cell_6_5 cell_7_5 cell_8_5 cell_9_5) true))
(assert
 (and (distinct cell_1_6 cell_2_6 cell_3_6 cell_4_6 cell_5_6 cell_6_6 cell_7_6 cell_8_6 cell_9_6) true))
(assert
 (and (distinct cell_1_7 cell_2_7 cell_3_7 cell_4_7 cell_5_7 cell_6_7 cell_7_7 cell_8_7 cell_9_7) true))
(assert
 (and (distinct cell_1_8 cell_2_8 cell_3_8 cell_4_8 cell_5_8 cell_6_8 cell_7_8 cell_8_8 cell_9_8) true))
(assert
 (and (distinct cell_1_9 cell_2_9 cell_3_9 cell_4_9 cell_5_9 cell_6_9 cell_7_9 cell_8_9 cell_9_9) true))
(assert
 (and (distinct cell_1_1 cell_1_2 cell_1_3 cell_2_1 cell_2_2 cell_2_3 cell_3_1 cell_3_2 cell_3_3) true))
(assert
 (and (distinct cell_1_4 cell_1_5 cell_1_6 cell_2_4 cell_2_5 cell_2_6 cell_3_4 cell_3_5 cell_3_6) true))
(assert
 (and (distinct cell_1_7 cell_1_8 cell_1_9 cell_2_7 cell_2_8 cell_2_9 cell_3_7 cell_3_8 cell_3_9) true))
(assert
 (and (distinct cell_4_1 cell_4_2 cell_4_3 cell_5_1 cell_5_2 cell_5_3 cell_6_1 cell_6_2 cell_6_3) true))
(assert
 (and (distinct cell_4_4 cell_4_5 cell_4_6 cell_5_4 cell_5_5 cell_5_6 cell_6_4 cell_6_5 cell_6_6) true))
(assert
 (and (distinct cell_4_7 cell_4_8 cell_4_9 cell_5_7 cell_5_8 cell_5_9 cell_6_7 cell_6_8 cell_6_9) true))
(assert
 (and (distinct cell_7_1 cell_7_2 cell_7_3 cell_8_1 cell_8_2 cell_8_3 cell_9_1 cell_9_2 cell_9_3) true))
(assert
 (and (distinct cell_7_4 cell_7_5 cell_7_6 cell_8_4 cell_8_5 cell_8_6 cell_9_4 cell_9_5 cell_9_6) true))
(assert
 (and (distinct cell_7_7 cell_7_8 cell_7_9 cell_8_7 cell_8_8 cell_8_9 cell_9_7 cell_9_8 cell_9_9) true))
(assert
 (let (($x1990 (and (distinct cell_5_9 cell_6_8 cell_7_7 cell_8_6) true)))
 (let (($x2176 (and (distinct cell_2_9 cell_3_8 cell_4_7 cell_5_6 cell_6_5 cell_7_4 cell_8_3 cell_9_2) true)))
 (let (($x991 (and (distinct cell_1_8 cell_2_7 cell_3_6 cell_4_5 cell_5_4 cell_6_3 cell_7_2 cell_8_1) true)))
 (let (($x1501 (and (distinct cell_1_5 cell_2_4 cell_3_3 cell_4_2) true)))
 (let (($x3119 (and (distinct cell_5_1 cell_6_2 cell_7_3 cell_8_4) true)))
 (let (($x2136 (and (distinct cell_2_1 cell_3_2 cell_4_3 cell_5_4 cell_6_5 cell_7_6 cell_8_7 cell_9_8) true)))
 (let (($x1541 (and (distinct cell_1_2 cell_2_3 cell_3_4 cell_4_5 cell_5_6 cell_6_7 cell_7_8 cell_8_9) true)))
 (let (($x960 (and (distinct cell_1_5 cell_2_6 cell_3_7 cell_4_8) true)))
 (and $x960 $x1541 $x2136 $x3119 $x1501 $x991 $x2176 $x1990))))))))))
(assert
 (= cell_4_2 2))
(check-sat)
